000 000 000 000 000 000 000 000 -99 -99 -99 -99 000 000 000 -99 -99 -99 -99 000 000 000 000 -99 000 -99 -99 -99 000 -99 -99
000 000 000 000 000 000 000 000 000 -99 -99 -99 -99 000 000 000 -99 -99 -99 000 000 000 000 000 -99 -99 000 000 000 -99 -99
000 000 000 000 000 000 000 000 000 000 -99 -99 -99 -99 000 000 -99 -99 -99 000 000 -99 000 -99 -99 -99 000 000 000 -99 -99
000 000 000 000 000 000 000 000 000 000 000 -99 000 -99 000 000 000 -99 -99 000 000 000 -99 000 000 000 -99 000 000 000 000
000 000 000 000 000 000 000 000 000 000 000 -99 000 000 -99 -99 -99 000 -99 -99 000 000 000 000 000 000 000 -99 -99 -99 000
000 000 000 000 000 000 000 000 000 000 000 -99 000 -99 -99 -99 -99 000 -99 -99 000 000 000 000 000 000 000 -99 -99 -99 000
000 000 000 000 000 000 000 000 000 000 000 000 -99 000 000 000 000 -99 -99 -99 000 000 000 000 000 000 -99 -99 -99 -99 -99
000 000 000 000 000 000 000 000 000 -99 000 000 000 -99 000 000 000 000 -99 -99 000 000 000 000 000 -99 -99 -99 -99 000 -99
000 000 000 000 -99 -99 -99 000 000 000 000 000 000 000 000 000 000 000 000 000 000 000 000 000 000 -99 000 000 -99 000 000
000 000 000 000 000 -99 -99 -99 -99 000 000 000 000 000 000 000 000 000 000 000 000 000 000 000 000 000 000 000 -99 000 000
000 000 000 000 000 000 000 000 -99 000 000 000 -99 000 000 000 000 000 000 000 000 000 002 000 000 000 000 000 000 000 000
000 000 000 000 000 000 000 000 000 000 000 000 -99 000 000 000 000 -99 000 000 000 000 003 001 000 -99 000 000 000 000 000
000 000 000 000 000 000 000 000 000 000 000 000 -99 000 000 000 000 -99 000 000 000 000 002 001 000 000 000 000 000 000 000
000 000 000 000 000 000 000 000 000 000 -99 -99 000 000 -99 -99 000 -99 000 000 000 000 -99 000 000 000 000 -99 000 000 -99
000 000 -99 000 000 000 000 000 000 000 -99 -99 000 000 -99 -99 000 000 000 000 000 000 -99 000 000 000 000 000 000 000 000
000 -99 -99 -99 000 000 000 000 000 000 -99 -99 -99 000 000 -99 000 000 000 -99 -99 000 000 000 000 000 000 000 000 000 -99
-99 -99 -99 -99 000 000 000 000 000 000 000 -99 -99 000 000 000 000 000 000 000 -99 000 000 000 000 000 000 -99 000 000 000
000 -99 -99 -99 -99 -99 000 000 000 000 000 000 -99 -99 000 000 000 -99 -99 -99 000 000 000 001 000 000 000 -99 000 000 000
000 000 000 -99 -99 -99 -99 000 000 000 000 000 -99 -99 000 000 000 000 000 -99 000 000 000 000 000 000 -99 -99 -99 000 000
000 000 000 000 -99 -99 -99 000 000 000 000 -99 -99 -99 000 000 000 000 000 000 000 000 000 -99 001 -99 -99 -99 -99 -99 -99
000 000 000 000 000 000 -99 -99 000 000 000 -99 -99 -99 000 -99 000 000 000 000 000 000 000 -99 003 -99 -99 -99 -99 -99 -99
000 000 000 000 000 000 -99 000 000 000 -99 -99 000 -99 -99 000 000 000 000 000 000 000 000 -99 002 001 -99 -99 -99 -99 -99
000 000 000 000 000 000 -99 000 000 000 -99 -99 000 000 -99 000 000 000 000 000 000 000 000 -99 001 001 -99 -99 -99 -99 -99
000 000 000 000 000 000 000 000 000 000 -99 -99 000 000 000 000 000 000 000 000 000 000 000 -99 001 -99 -99 -99 -99 -99 -99
000 000 000 000 000 000 000 000 000 000 -99 -99 000 000 000 000 000 000 000 000 000 000 000 -99 -99 -99 -99 -99 -99 -99 000
000 000 000 000 000 000 000 000 000 000 -99 -99 -99 000 000 000 000 000 000 000 000 000 000 -99 -99 -99 -99 -99 -99 -99 000
000 000 000 000 000 000 000 000 000 000 000 -99 -99 000 000 -99 000 000 000 000 000 000 -99 -99 -99 -99 -99 -99 -99 000 000
000 000 000 000 000 000 000 000 000 000 -99 -99 -99 -99 000 000 000 000 000 000 -99 -99 -99 -99 -99 -99 -99 -99 -99 000 000
000 000 000 000 000 000 000 000 000 000 000 -99 -99 000 000 000 000 000 000 000 -99 -99 -99 003 -99 -99 -99 -99 -99 000 000
000 000 000 000 000 000 000 000 000 000 000 -99 -99 000 000 000 000 000 000 000 -99 -99 010 001 -99 -99 -99 -99 -99 -99 -99
000 000 000 000 000 000 -99 000 000 000 000 -99 001 000 000 000 -99 000 000 000 -99 -99 002 002 -99 -99 -99 -99 -99 -99 -99
000 000 000 000 000 -99 -99 000 000 000 000 -99 001 000 000 -99 -99 000 000 -99 -99 -99 -99 001 000 -99 -99 -99 -99 -99 000
000 000 000 000 000 000 000 000 000 000 000 -99 000 000 000 -99 -99 000 000 -99 -99 -99 -99 -99 000 -99 -99 -99 -99 -99 000
000 000 000 000 000 000 000 000 000 000 -99 -99 000 000 000 -99 000 000 -99 -99 -99 -99 -99 -99 000 000 -99 000 000 000 000
000 000 000 000 000 000 000 000 000 000 -99 -99 000 000 000 000 000 -99 -99 -99 -99 -99 000 000 000 000 000 000 000 000 000
000 000 000 000 000 000 000 000 000 000 000 000 000 000 000 000 000 -99 000 000 000 000 000 000 000 000 000 000 000 000 000
000 000 000 000 000 000 000 000 000 000 000 -99 000 000 000 000 000 000 000 000 000 000 000 000 000 000 000 000 000 -99 000
000 000 000 000 000 -99 000 000 000 000 -99 000 000 000 000 000 000 -99 000 000 000 000 000 000 000 000 000 000 -99 -99 000
000 000 000 000 000 000 000 000 000 000 -99 -99 000 000 000 000 000 -99 -99 000 000 000 000 000 000 000 000 -99 -99 -99 -99
000 000 000 000 000 000 000 000 -99 -99 -99 000 000 000 -99 -99 000 000 -99 000 000 -99 000 000 000 000 000 -99 000 -99 -99
000 000 000 000 000 000 000 -99 -99 000 000 000 000 000 000 -99 000 000 000 000 000 -99 -99 000 000 000 000 000 000 -99 -99
000 000 -99 000 000 000 000 000 000 000 000 000 000 000 000 000 000 000 000 000 000 000 -99 000 000 000 000 000 000 000 000
000 000 -99 -99 000 000 000 -99 -99 000 000 000 000 000 000 000 000 000 000 000 000 -99 -99 000 000 000 000 000 000 -99 000
000 -99 -99 -99 -99 000 -99 -99 -99 000 -99 000 000 000 000 000 000 000 000 000 000 -99 000 000 000 000 000 000 000 -99 000
000 -99 -99 -99 -99 -99 -99 -99 -99 000 -99 000 000 000 000 000 000 000 000 -99 000 -99 000 000 000 000 000 000 000 -99 -99
000 -99 -99 -99 -99 -99 -99 -99 -99 -99 000 000 000 000 000 000 000 000 -99 -99 000 000 000 000 000 000 000 000 -99 -99 000
000 -99 -99 -99 -99 -99 -99 -99 -99 -99 000 000 000 000 000 000 -99 000 -99 -99 000 000 000 000 000 000 000 000 000 000 -99
-99 -99 -99 -99 -99 -99 -99 -99 -99 -99 000 -99 000 000 000 -99 -99 000 -99 -99 000 000 000 000 000 000 000 000 000 000 -99
-99 -99 -99 -99 -99 -99 -99 -99 -99 -99 -99 000 000 000 000 -99 000 000 -99 -99 000 000 000 000 000 000 000 000 000 000 -99
-99 -99 -99 -99 -99 -99 -99 -99 -99 -99 -99 -99 -99 -99 -99 -99 000 000 -99 000 000 000 000 000 000 000 000 000 000 -99 -99
-99 -99 -99 -99 -99 -99 -99 -99 -99 000 -99 -99 -99 -99 -99 -99 000 000 000 000 000 000 000 000 000 000 000 000 -99 -99 -99
-99 -99 -99 -99 -99 -99 -99 -99 -99 -99 -99 -99 -99 -99 -99 -99 -99 000 000 000 000 000 -99 000 000 000 000 000 -99 -99 -99
-99 -99 -99 -99 -99 -99 -99 -99 -99 -99 -99 -99 -99 -99 -99 -99 000 000 000 000 000 000 -99 000 000 000 000 -99 -99 -99 -99
-99 -99 -99 -99 -99 -99 -99 -99 -99 -99 -99 -99 -99 -99 -99 -99 000 000 000 000 000 000 -99 000 000 000 000 -99 -99 -99 -99
-99 -99 -99 -99 -99 -99 -99 -99 -99 -99 -99 -99 -99 -99 000 000 000 000 000 000 000 000 -99 000 000 001 000 -99 -99 -99 -99
